NAME : 	X-n801-k40	
COMMENT : 	"Generated by Uchoa, Pecin, Pessoa, Poggi, Subramanian, and Vidal (2013)"	
TYPE : 	CVRP	
DIMENSION : 	801	
EDGE_WEIGHT_TYPE : 	EUC_2D	
CAPACITY : 	20	
NODE_COORD_SECTION		
1	0	0
2	674	825
3	549	534
4	43	315
5	542	420
6	45	580
7	180	450
8	369	618
9	287	721
10	36	426
11	680	338
12	42	81
13	942	119
14	247	68
15	432	549
16	514	857
17	554	976
18	103	728
19	271	73
20	310	859
21	874	538
22	358	642
23	989	42
24	538	271
25	854	443
26	596	563
27	827	228
28	380	40
29	152	224
30	726	258
31	981	544
32	600	381
33	629	799
34	488	12
35	100	542
36	37	272
37	847	980
38	949	124
39	787	917
40	111	958
41	571	968
42	2	409
43	95	2
44	318	447
45	271	856
46	873	697
47	34	274
48	733	17
49	620	125
50	611	334
51	66	848
52	507	711
53	993	152
54	596	683
55	605	980
56	372	833
57	968	699
58	36	620
59	518	566
60	138	457
61	828	421
62	467	39
63	626	645
64	192	923
65	56	363
66	252	349
67	202	896
68	999	331
69	843	462
70	83	975
71	475	135
72	601	55
73	578	43
74	480	854
75	124	825
76	121	228
77	355	326
78	291	944
79	784	563
80	260	251
81	472	918
82	193	715
83	539	592
84	794	290
85	930	315
86	190	654
87	429	292
88	79	779
89	931	409
90	114	765
91	948	685
92	550	915
93	383	979
94	127	64
95	541	935
96	218	159
97	396	194
98	216	85
99	106	843
100	174	744
101	782	117
102	699	379
103	497	355
104	87	161
105	558	199
106	721	10
107	18	53
108	704	674
109	443	783
110	755	58
111	928	666
112	347	805
113	360	600
114	101	119
115	938	556
116	422	848
117	934	275
118	391	807
119	712	230
120	908	359
121	992	823
122	80	246
123	367	837
124	865	661
125	67	146
126	956	582
127	977	663
128	930	343
129	896	542
130	631	472
131	62	636
132	817	759
133	914	195
134	46	591
135	102	825
136	822	527
137	763	684
138	975	128
139	26	941
140	314	34
141	787	474
142	512	291
143	718	832
144	244	931
145	534	425
146	585	799
147	513	990
148	641	633
149	254	283
150	448	389
151	702	44
152	109	823
153	402	190
154	184	314
155	26	270
156	333	949
157	132	174
158	203	842
159	182	78
160	575	723
161	807	656
162	745	757
163	320	523
164	175	626
165	488	947
166	376	858
167	540	797
168	52	401
169	441	748
170	491	459
171	398	734
172	202	560
173	636	652
174	813	892
175	403	311
176	201	878
177	245	641
178	894	2
179	515	142
180	701	895
181	143	590
182	612	652
183	650	986
184	932	420
185	410	762
186	676	219
187	174	236
188	204	25
189	828	312
190	120	96
191	409	434
192	405	549
193	379	787
194	810	191
195	129	755
196	499	596
197	754	620
198	937	430
199	61	519
200	29	34
201	843	640
202	520	251
203	385	685
204	619	501
205	239	564
206	908	111
207	234	353
208	467	896
209	742	499
210	277	981
211	194	265
212	851	885
213	850	444
214	131	847
215	806	302
216	627	401
217	267	788
218	805	211
219	61	985
220	729	142
221	402	812
222	956	593
223	907	977
224	670	71
225	863	184
226	74	25
227	741	581
228	38	919
229	963	467
230	979	558
231	916	241
232	4	676
233	217	612
234	311	756
235	235	42
236	815	106
237	848	461
238	46	198
239	460	210
240	293	234
241	274	248
242	986	983
243	800	608
244	342	852
245	623	95
246	258	221
247	420	244
248	444	16
249	223	518
250	821	540
251	939	766
252	157	549
253	106	921
254	961	583
255	925	959
256	619	540
257	507	97
258	790	509
259	404	252
260	44	843
261	363	737
262	752	492
263	352	216
264	226	577
265	817	913
266	115	221
267	200	58
268	38	628
269	711	595
270	479	404
271	332	129
272	929	145
273	93	139
274	269	260
275	583	421
276	424	47
277	715	796
278	240	26
279	743	62
280	633	515
281	528	202
282	976	456
283	54	828
284	739	497
285	191	890
286	384	316
287	713	629
288	502	205
289	563	779
290	205	892
291	368	18
292	766	621
293	207	679
294	506	481
295	622	691
296	946	987
297	890	793
298	182	900
299	530	981
300	540	313
301	78	213
302	456	978
303	99	363
304	623	878
305	448	422
306	379	61
307	792	953
308	347	720
309	373	793
310	330	512
311	22	7
312	445	147
313	431	90
314	517	208
315	659	423
316	724	233
317	906	970
318	476	43
319	522	237
320	571	317
321	280	476
322	571	424
323	885	129
324	452	500
325	743	544
326	493	777
327	976	918
328	412	154
329	686	502
330	762	39
331	473	60
332	570	414
333	201	567
334	226	169
335	12	159
336	627	681
337	589	346
338	563	637
339	678	455
340	361	119
341	849	338
342	776	929
343	511	327
344	128	163
345	183	433
346	697	48
347	3	800
348	361	10
349	499	410
350	601	34
351	73	124
352	908	439
353	136	356
354	203	835
355	355	733
356	221	582
357	961	627
358	661	144
359	875	331
360	455	290
361	104	892
362	281	548
363	378	180
364	329	906
365	41	229
366	320	770
367	191	805
368	767	162
369	72	237
370	491	176
371	716	497
372	391	682
373	828	526
374	457	274
375	934	814
376	33	480
377	765	225
378	337	209
379	903	78
380	223	461
381	668	475
382	201	270
383	261	879
384	697	920
385	152	937
386	573	385
387	724	568
388	892	43
389	159	283
390	931	623
391	585	768
392	449	408
393	459	705
394	203	692
395	215	862
396	712	480
397	150	407
398	274	443
399	565	501
400	230	119
401	157	111
402	481	368
403	662	102
404	252	72
405	737	554
406	111	96
407	110	348
408	232	480
409	970	989
410	910	901
411	598	686
412	327	371
413	267	682
414	571	194
415	383	829
416	897	166
417	869	417
418	244	30
419	809	255
420	4	177
421	340	996
422	32	602
423	793	712
424	916	104
425	77	731
426	489	744
427	330	707
428	600	540
429	803	954
430	123	430
431	998	17
432	229	468
433	67	511
434	897	279
435	448	185
436	680	762
437	752	263
438	724	44
439	911	15
440	29	685
441	563	589
442	972	125
443	696	82
444	61	393
445	536	881
446	963	57
447	690	225
448	759	430
449	535	47
450	468	19
451	860	45
452	810	233
453	753	13
454	217	331
455	747	415
456	106	630
457	207	218
458	389	952
459	974	969
460	242	335
461	249	118
462	118	982
463	741	606
464	15	459
465	52	684
466	990	159
467	325	995
468	926	999
469	123	903
470	544	369
471	582	67
472	676	344
473	793	276
474	774	131
475	447	520
476	675	775
477	723	323
478	624	108
479	431	317
480	531	961
481	401	76
482	493	604
483	125	188
484	558	463
485	646	587
486	736	62
487	698	127
488	270	234
489	100	418
490	154	568
491	396	895
492	890	116
493	740	150
494	509	345
495	42	516
496	837	341
497	363	882
498	9	260
499	543	783
500	238	33
501	101	723
502	823	319
503	376	753
504	421	707
505	912	300
506	564	169
507	101	247
508	418	767
509	79	258
510	806	598
511	857	357
512	465	7
513	718	756
514	571	33
515	858	934
516	498	115
517	270	966
518	837	44
519	897	98
520	659	168
521	6	579
522	33	841
523	846	736
524	792	131
525	524	301
526	545	773
527	154	997
528	945	365
529	248	354
530	206	831
531	351	798
532	868	116
533	936	974
534	809	145
535	542	321
536	515	23
537	167	912
538	594	490
539	910	515
540	542	619
541	855	937
542	758	776
543	217	592
544	810	821
545	735	333
546	950	557
547	305	532
548	880	441
549	877	400
550	771	528
551	592	578
552	520	681
553	175	953
554	276	21
555	574	742
556	199	633
557	852	821
558	476	514
559	326	299
560	589	781
561	960	350
562	830	120
563	0	291
564	65	496
565	877	905
566	753	97
567	329	24
568	207	545
569	811	359
570	113	342
571	120	573
572	295	581
573	298	609
574	731	893
575	763	273
576	816	651
577	702	61
578	880	426
579	719	232
580	955	689
581	715	141
582	788	762
583	34	817
584	105	22
585	857	788
586	134	359
587	831	163
588	361	870
589	975	958
590	553	819
591	807	673
592	19	838
593	746	121
594	130	380
595	741	511
596	80	424
597	173	767
598	906	426
599	990	111
600	748	520
601	92	895
602	371	978
603	986	670
604	929	905
605	661	524
606	974	197
607	742	652
608	732	747
609	870	188
610	612	890
611	348	284
612	973	109
613	34	437
614	137	997
615	474	63
616	665	444
617	300	335
618	856	104
619	866	249
620	528	91
621	140	964
622	25	937
623	848	367
624	486	786
625	857	918
626	357	860
627	823	709
628	162	150
629	77	809
630	516	380
631	772	832
632	387	199
633	261	767
634	619	645
635	754	57
636	692	838
637	193	932
638	738	941
639	406	976
640	811	360
641	487	965
642	396	197
643	444	940
644	182	954
645	85	539
646	70	483
647	161	570
648	447	194
649	757	845
650	692	506
651	930	251
652	950	549
653	601	86
654	143	117
655	698	634
656	238	877
657	543	987
658	761	809
659	494	134
660	562	925
661	838	282
662	834	210
663	926	436
664	375	833
665	568	225
666	106	594
667	675	986
668	835	632
669	144	83
670	272	373
671	4	496
672	299	740
673	805	641
674	482	600
675	255	448
676	834	470
677	117	696
678	837	469
679	345	585
680	703	523
681	476	565
682	893	816
683	271	417
684	877	492
685	605	578
686	156	613
687	607	721
688	527	358
689	54	581
690	591	478
691	7	37
692	529	997
693	705	436
694	110	166
695	702	173
696	962	671
697	262	521
698	82	75
699	1000	703
700	607	536
701	764	227
702	827	744
703	788	463
704	450	136
705	72	466
706	119	348
707	32	58
708	178	910
709	381	159
710	686	207
711	276	358
712	683	682
713	708	748
714	707	282
715	141	999
716	558	169
717	403	688
718	315	671
719	827	880
720	601	481
721	641	950
722	98	116
723	611	668
724	313	616
725	928	521
726	595	498
727	350	295
728	397	963
729	595	904
730	798	339
731	978	460
732	260	800
733	302	615
734	653	302
735	5	126
736	512	800
737	541	691
738	559	690
739	24	21
740	465	522
741	125	178
742	868	947
743	204	141
744	636	919
745	703	643
746	385	155
747	790	245
748	244	833
749	244	666
750	870	543
751	606	359
752	712	497
753	553	343
754	532	975
755	555	276
756	165	33
757	757	787
758	537	457
759	120	51
760	932	958
761	815	623
762	502	636
763	859	508
764	42	675
765	10	496
766	999	300
767	908	736
768	735	980
769	459	564
770	49	877
771	483	587
772	945	557
773	602	2
774	633	936
775	379	182
776	814	486
777	710	500
778	178	687
779	466	406
780	186	732
781	381	762
782	69	478
783	193	411
784	109	653
785	40	10
786	142	303
787	90	111
788	334	499
789	443	482
790	187	290
791	262	691
792	814	908
793	171	930
794	446	214
795	893	96
796	205	410
797	137	120
798	115	986
799	745	541
800	368	926
801	77	338
DEMAND_SECTION		
1	0	
2	1	
3	1	
4	1	
5	1	
6	1	
7	1	
8	1
9	1
10	1
11	1
12	1
13	1
14	1
15	1
16	1
17	1
18	1
19	1
20	1
21	1
22	1
23	1
24	1
25	1
26	1
27	1
28	1
29	1
30	1
31	1
32	1
33	1
34	1
35	1
36	1
37	1
38	1
39	1
40	1
41	1
42	1
43	1
44	1
45	1
46	1
47	1
48	1
49	1
50	1
51	1
52	1
53	1
54	1
55	1
56	1
57	1
58	1
59	1
60	1
61	1
62	1
63	1
64	1
65	1
66	1
67	1
68	1
69	1
70	1
71	1
72	1
73	1
74	1
75	1
76	1
77	1
78	1
79	1
80	1
81	1
82	1
83	1
84	1
85	1
86	1
87	1
88	1
89	1
90	1
91	1
92	1
93	1
94	1
95	1
96	1
97	1
98	1
99	1
100	1
101	1
102	1
103	1
104	1
105	1
106	1
107	1
108	1
109	1
110	1
111	1
112	1
113	1
114	1
115	1
116	1
117	1
118	1
119	1
120	1
121	1
122	1
123	1
124	1
125	1
126	1
127	1
128	1
129	1
130	1
131	1
132	1
133	1
134	1
135	1
136	1
137	1
138	1
139	1
140	1
141	1
142	1
143	1
144	1
145	1
146	1
147	1
148	1
149	1
150	1
151	1
152	1
153	1
154	1
155	1
156	1
157	1
158	1
159	1
160	1
161	1
162	1
163	1
164	1
165	1
166	1
167	1
168	1
169	1
170	1
171	1
172	1
173	1
174	1
175	1
176	1
177	1
178	1
179	1
180	1
181	1
182	1
183	1
184	1
185	1
186	1
187	1
188	1
189	1
190	1
191	1
192	1
193	1
194	1
195	1
196	1
197	1
198	1
199	1
200	1
201	1
202	1
203	1
204	1
205	1
206	1
207	1
208	1
209	1
210	1
211	1
212	1
213	1
214	1
215	1
216	1
217	1
218	1
219	1
220	1
221	1
222	1
223	1
224	1
225	1
226	1
227	1
228	1
229	1
230	1
231	1
232	1
233	1
234	1
235	1
236	1
237	1
238	1
239	1
240	1
241	1
242	1
243	1
244	1
245	1
246	1
247	1
248	1
249	1
250	1
251	1
252	1
253	1
254	1
255	1
256	1
257	1
258	1
259	1
260	1
261	1
262	1
263	1
264	1
265	1
266	1
267	1
268	1
269	1
270	1
271	1
272	1
273	1
274	1
275	1
276	1
277	1
278	1
279	1
280	1
281	1
282	1
283	1
284	1
285	1
286	1
287	1
288	1
289	1
290	1
291	1
292	1
293	1
294	1
295	1
296	1
297	1
298	1
299	1
300	1
301	1
302	1
303	1
304	1
305	1
306	1
307	1
308	1
309	1
310	1
311	1
312	1
313	1
314	1
315	1
316	1
317	1
318	1
319	1
320	1
321	1
322	1
323	1
324	1
325	1
326	1
327	1
328	1
329	1
330	1
331	1
332	1
333	1
334	1
335	1
336	1
337	1
338	1
339	1
340	1
341	1
342	1
343	1
344	1
345	1
346	1
347	1
348	1
349	1
350	1
351	1
352	1
353	1
354	1
355	1
356	1
357	1
358	1
359	1
360	1
361	1
362	1
363	1
364	1
365	1
366	1
367	1
368	1
369	1
370	1
371	1
372	1
373	1
374	1
375	1
376	1
377	1
378	1
379	1
380	1
381	1
382	1
383	1
384	1
385	1
386	1
387	1
388	1
389	1
390	1
391	1
392	1
393	1
394	1
395	1
396	1
397	1
398	1
399	1
400	1
401	1
402	1
403	1
404	1
405	1
406	1
407	1
408	1
409	1
410	1
411	1
412	1
413	1
414	1
415	1
416	1
417	1
418	1
419	1
420	1
421	1
422	1
423	1
424	1
425	1
426	1
427	1
428	1
429	1
430	1
431	1
432	1
433	1
434	1
435	1
436	1
437	1
438	1
439	1
440	1
441	1
442	1
443	1
444	1
445	1
446	1
447	1
448	1
449	1
450	1
451	1
452	1
453	1
454	1
455	1
456	1
457	1
458	1
459	1
460	1
461	1
462	1
463	1
464	1
465	1
466	1
467	1
468	1
469	1
470	1
471	1
472	1
473	1
474	1
475	1
476	1
477	1
478	1
479	1
480	1
481	1
482	1
483	1
484	1
485	1
486	1
487	1
488	1
489	1
490	1
491	1
492	1
493	1
494	1
495	1
496	1
497	1
498	1
499	1
500	1
501	1
502	1
503	1
504	1
505	1
506	1
507	1
508	1
509	1
510	1
511	1
512	1
513	1
514	1
515	1
516	1
517	1
518	1
519	1
520	1
521	1
522	1
523	1
524	1
525	1
526	1
527	1
528	1
529	1
530	1
531	1
532	1
533	1
534	1
535	1
536	1
537	1
538	1
539	1
540	1
541	1
542	1
543	1
544	1
545	1
546	1
547	1
548	1
549	1
550	1
551	1
552	1
553	1
554	1
555	1
556	1
557	1
558	1
559	1
560	1
561	1
562	1
563	1
564	1
565	1
566	1
567	1
568	1
569	1
570	1
571	1
572	1
573	1
574	1
575	1
576	1
577	1
578	1
579	1
580	1
581	1
582	1
583	1
584	1
585	1
586	1
587	1
588	1
589	1
590	1
591	1
592	1
593	1
594	1
595	1
596	1
597	1
598	1
599	1
600	1
601	1
602	1
603	1
604	1
605	1
606	1
607	1
608	1
609	1
610	1
611	1
612	1
613	1
614	1
615	1
616	1
617	1
618	1
619	1
620	1
621	1
622	1
623	1
624	1
625	1
626	1
627	1
628	1
629	1
630	1
631	1
632	1
633	1
634	1
635	1
636	1
637	1
638	1
639	1
640	1
641	1
642	1
643	1
644	1
645	1
646	1
647	1
648	1
649	1
650	1
651	1
652	1
653	1
654	1
655	1
656	1
657	1
658	1
659	1
660	1
661	1
662	1
663	1
664	1
665	1
666	1
667	1
668	1
669	1
670	1
671	1
672	1
673	1
674	1
675	1
676	1
677	1
678	1
679	1
680	1
681	1
682	1
683	1
684	1
685	1
686	1
687	1
688	1
689	1
690	1
691	1
692	1
693	1
694	1
695	1
696	1
697	1
698	1
699	1
700	1
701	1
702	1
703	1
704	1
705	1
706	1
707	1
708	1
709	1
710	1
711	1
712	1
713	1
714	1
715	1
716	1
717	1
718	1
719	1
720	1
721	1
722	1
723	1
724	1
725	1
726	1
727	1
728	1
729	1
730	1
731	1
732	1
733	1
734	1
735	1
736	1
737	1
738	1
739	1
740	1
741	1
742	1
743	1
744	1
745	1
746	1
747	1
748	1
749	1
750	1
751	1
752	1
753	1
754	1
755	1
756	1
757	1
758	1
759	1
760	1
761	1
762	1
763	1
764	1
765	1
766	1
767	1
768	1
769	1
770	1
771	1
772	1
773	1
774	1
775	1
776	1
777	1
778	1
779	1
780	1
781	1
782	1
783	1
784	1
785	1
786	1
787	1
788	1
789	1
790	1
791	1
792	1
793	1
794	1
795	1
796	1
797	1
798	1
799	1
800	1
801	1
DEPOT_SECTION	
	1
	-1
EOF	
